; Query 0 -- Type: InitialValues, Instructions: 1733
(set-option :produce-models true)
(set-logic QF_AUFBV )
(declare-fun v0___symfile____tmp_input___0_1_symfile___0 () (Array (_ BitVec 32) (_ BitVec 8) ) )
(assert (let ( (?B1 (select  v0___symfile____tmp_input___0_1_symfile___0 (_ bv0 32) ) ) ) (let ( (?B2 ((_ zero_extend 24)  ?B1 ) ) ) (and  (and  (=  false (=  (_ bv0 32) (bvand  (bvand  ?B2 ?B2 ) (_ bv255 32) ) ) ) (bvule  ?B1 (_ bv126 8) ) ) (bvule  (_ bv32 8) ?B1 ) ) ) ) )
(check-sat)
(get-value ( (select v0___symfile____tmp_input___0_1_symfile___0 (_ bv0 32) ) ) )
(exit)
;   OK -- Elapsed: 4.140019e-03
;   Solvable: true
;     v0___symfile____tmp_input___0_1_symfile___0 = [63]

; Query 1 -- Type: InitialValues, Instructions: 6108
(set-option :produce-models true)
(set-logic QF_AUFBV )
(declare-fun v0___symfile____tmp_input___0_1_symfile___0 () (Array (_ BitVec 32) (_ BitVec 8) ) )
(assert (let ( (?B1 (select  v0___symfile____tmp_input___0_1_symfile___0 (_ bv0 32) ) ) ) (let ( (?B2 ((_ zero_extend 24)  ?B1 ) ) ) (and  (and  (and  (=  (_ bv0 32) (bvand  (bvadd  (_ bv4294967286 32) ?B2 ) (_ bv255 32) ) ) (=  false (=  (_ bv0 32) (bvand  (bvand  ?B2 ?B2 ) (_ bv255 32) ) ) ) ) (bvule  ?B1 (_ bv126 8) ) ) (bvule  (_ bv32 8) ?B1 ) ) ) ) )
(check-sat)
(get-value ( (select v0___symfile____tmp_input___0_1_symfile___0 (_ bv0 32) ) ) )
(exit)
;   OK -- Elapsed: 5.921125e-04
;   Solvable: false

; Query 2 -- Type: InitialValues, Instructions: 6342
(set-option :produce-models true)
(set-logic QF_AUFBV )
(declare-fun v0___symfile____tmp_input___0_1_symfile___0 () (Array (_ BitVec 32) (_ BitVec 8) ) )
(assert (let ( (?B1 (select  v0___symfile____tmp_input___0_1_symfile___0 (_ bv0 32) ) ) ) (let ( (?B2 ((_ zero_extend 24)  ?B1 ) ) ) (let ( (?B3 (=  (_ bv0 32) (bvand  (bvand  ?B2 ?B2 ) (_ bv255 32) ) ) ) ) false ) ) ) )
(check-sat)
(get-value ( (select v0___symfile____tmp_input___0_1_symfile___0 (_ bv0 32) ) ) )
(exit)
;   OK -- Elapsed: 3.889799e-04
;   Solvable: false

; Query 3 -- Type: InitialValues, Instructions: 6968
(set-option :produce-models true)
(set-logic QF_AUFBV )
(declare-fun v0___symfile____tmp_input___0_1_symfile___0 () (Array (_ BitVec 32) (_ BitVec 8) ) )
(assert (let ( (?B1 (select  v0___symfile____tmp_input___0_1_symfile___0 (_ bv0 32) ) ) ) (let ( (?B2 ((_ zero_extend 24)  ?B1 ) ) ) (and  (and  (and  (bvsle  ((_ sign_extend 24)  ?B1 ) (_ bv47 32) ) (=  false (=  (_ bv0 32) (bvand  (bvand  ?B2 ?B2 ) (_ bv255 32) ) ) ) ) (bvule  ?B1 (_ bv126 8) ) ) (bvule  (_ bv32 8) ?B1 ) ) ) ) )
(check-sat)
(get-value ( (select v0___symfile____tmp_input___0_1_symfile___0 (_ bv0 32) ) ) )
(exit)
;   OK -- Elapsed: 1.055956e-03
;   Solvable: true
;     v0___symfile____tmp_input___0_1_symfile___0 = [47]

; Query 4 -- Type: InitialValues, Instructions: 7103
(set-option :produce-models true)
(set-logic QF_AUFBV )
(declare-fun v0___symfile____tmp_input___0_1_symfile___0 () (Array (_ BitVec 32) (_ BitVec 8) ) )
(assert (let ( (?B1 (select  v0___symfile____tmp_input___0_1_symfile___0 (_ bv0 32) ) ) ) (let ( (?B2 ((_ zero_extend 24)  ?B1 ) ) (?B3 ((_ sign_extend 24)  ?B1 ) ) ) (and  (and  (and  (and  (=  false (bvslt  (_ bv57 32) ?B3 ) ) (=  false (bvsle  ?B3 (_ bv47 32) ) ) ) (=  false (=  (_ bv0 32) (bvand  (bvand  ?B2 ?B2 ) (_ bv255 32) ) ) ) ) (bvule  ?B1 (_ bv126 8) ) ) (bvule  (_ bv32 8) ?B1 ) ) ) ) )
(check-sat)
(get-value ( (select v0___symfile____tmp_input___0_1_symfile___0 (_ bv0 32) ) ) )
(exit)
;   OK -- Elapsed: 8.990765e-04
;   Solvable: true
;     v0___symfile____tmp_input___0_1_symfile___0 = [53]

; Query 5 -- Type: InitialValues, Instructions: 7878
(set-option :produce-models true)
(set-logic QF_AUFBV )
(declare-fun v0___symfile____tmp_input___0_1_symfile___0 () (Array (_ BitVec 32) (_ BitVec 8) ) )
(assert (let ( (?B1 (select  v0___symfile____tmp_input___0_1_symfile___0 (_ bv0 32) ) ) ) (let ( (?B2 ((_ zero_extend 24)  ?B1 ) ) (?B3 ((_ sign_extend 24)  ?B1 ) ) ) (and  (and  (and  (and  (and  (=  (_ bv0 32) (bvand  (bvadd  (_ bv4294967253 32) ?B2 ) (_ bv255 32) ) ) (bvslt  (_ bv57 32) ?B3 ) ) (=  false (bvsle  ?B3 (_ bv47 32) ) ) ) (=  false (=  (_ bv0 32) (bvand  (bvand  ?B2 ?B2 ) (_ bv255 32) ) ) ) ) (bvule  ?B1 (_ bv126 8) ) ) (bvule  (_ bv32 8) ?B1 ) ) ) ) )
(check-sat)
(get-value ( (select v0___symfile____tmp_input___0_1_symfile___0 (_ bv0 32) ) ) )
(exit)
;   OK -- Elapsed: 5.500317e-04
;   Solvable: false

; Query 6 -- Type: InitialValues, Instructions: 8011
(set-option :produce-models true)
(set-logic QF_AUFBV )
(declare-fun v0___symfile____tmp_input___0_1_symfile___0 () (Array (_ BitVec 32) (_ BitVec 8) ) )
(assert (let ( (?B1 (select  v0___symfile____tmp_input___0_1_symfile___0 (_ bv0 32) ) ) ) (let ( (?B2 ((_ zero_extend 24)  ?B1 ) ) (?B3 ((_ sign_extend 24)  ?B1 ) ) ) (and  (and  (and  (and  (and  (=  (_ bv0 32) (bvand  (bvadd  (_ bv4294967251 32) ?B2 ) (_ bv255 32) ) ) (bvslt  (_ bv57 32) ?B3 ) ) (=  false (bvsle  ?B3 (_ bv47 32) ) ) ) (=  false (=  (_ bv0 32) (bvand  (bvand  ?B2 ?B2 ) (_ bv255 32) ) ) ) ) (bvule  ?B1 (_ bv126 8) ) ) (bvule  (_ bv32 8) ?B1 ) ) ) ) )
(check-sat)
(get-value ( (select v0___symfile____tmp_input___0_1_symfile___0 (_ bv0 32) ) ) )
(exit)
;   OK -- Elapsed: 4.700422e-04
;   Solvable: false

; Query 7 -- Type: InitialValues, Instructions: 8144
(set-option :produce-models true)
(set-logic QF_AUFBV )
(declare-fun v0___symfile____tmp_input___0_1_symfile___0 () (Array (_ BitVec 32) (_ BitVec 8) ) )
(assert (let ( (?B1 (select  v0___symfile____tmp_input___0_1_symfile___0 (_ bv0 32) ) ) ) (let ( (?B2 ((_ zero_extend 24)  ?B1 ) ) (?B3 ((_ sign_extend 24)  ?B1 ) ) ) (and  (and  (and  (and  (and  (=  (_ bv0 32) (bvand  (bvadd  (_ bv4294967254 32) ?B2 ) (_ bv255 32) ) ) (bvslt  (_ bv57 32) ?B3 ) ) (=  false (bvsle  ?B3 (_ bv47 32) ) ) ) (=  false (=  (_ bv0 32) (bvand  (bvand  ?B2 ?B2 ) (_ bv255 32) ) ) ) ) (bvule  ?B1 (_ bv126 8) ) ) (bvule  (_ bv32 8) ?B1 ) ) ) ) )
(check-sat)
(get-value ( (select v0___symfile____tmp_input___0_1_symfile___0 (_ bv0 32) ) ) )
(exit)
;   OK -- Elapsed: 4.659891e-04
;   Solvable: false

; Query 8 -- Type: InitialValues, Instructions: 8277
(set-option :produce-models true)
(set-logic QF_AUFBV )
(declare-fun v0___symfile____tmp_input___0_1_symfile___0 () (Array (_ BitVec 32) (_ BitVec 8) ) )
(assert (let ( (?B1 (select  v0___symfile____tmp_input___0_1_symfile___0 (_ bv0 32) ) ) ) (let ( (?B2 ((_ zero_extend 24)  ?B1 ) ) (?B3 ((_ sign_extend 24)  ?B1 ) ) ) (and  (and  (and  (and  (and  (=  (_ bv0 32) (bvand  (bvadd  (_ bv4294967249 32) ?B2 ) (_ bv255 32) ) ) (bvslt  (_ bv57 32) ?B3 ) ) (=  false (bvsle  ?B3 (_ bv47 32) ) ) ) (=  false (=  (_ bv0 32) (bvand  (bvand  ?B2 ?B2 ) (_ bv255 32) ) ) ) ) (bvule  ?B1 (_ bv126 8) ) ) (bvule  (_ bv32 8) ?B1 ) ) ) ) )
(check-sat)
(get-value ( (select v0___symfile____tmp_input___0_1_symfile___0 (_ bv0 32) ) ) )
(exit)
;   OK -- Elapsed: 4.620552e-04
;   Solvable: false

; Query 9 -- Type: InitialValues, Instructions: 8410
(set-option :produce-models true)
(set-logic QF_AUFBV )
(declare-fun v0___symfile____tmp_input___0_1_symfile___0 () (Array (_ BitVec 32) (_ BitVec 8) ) )
(assert (let ( (?B1 (select  v0___symfile____tmp_input___0_1_symfile___0 (_ bv0 32) ) ) ) (let ( (?B2 ((_ zero_extend 24)  ?B1 ) ) (?B3 ((_ sign_extend 24)  ?B1 ) ) ) (and  (and  (and  (and  (and  (=  (_ bv0 32) (bvand  (bvadd  (_ bv4294967264 32) ?B2 ) (_ bv255 32) ) ) (bvslt  (_ bv57 32) ?B3 ) ) (=  false (bvsle  ?B3 (_ bv47 32) ) ) ) (=  false (=  (_ bv0 32) (bvand  (bvand  ?B2 ?B2 ) (_ bv255 32) ) ) ) ) (bvule  ?B1 (_ bv126 8) ) ) (bvule  (_ bv32 8) ?B1 ) ) ) ) )
(check-sat)
(get-value ( (select v0___symfile____tmp_input___0_1_symfile___0 (_ bv0 32) ) ) )
(exit)
;   OK -- Elapsed: 4.780293e-04
;   Solvable: false

; Query 10 -- Type: InitialValues, Instructions: 8543
(set-option :produce-models true)
(set-logic QF_AUFBV )
(declare-fun v0___symfile____tmp_input___0_1_symfile___0 () (Array (_ BitVec 32) (_ BitVec 8) ) )
(assert (let ( (?B1 (select  v0___symfile____tmp_input___0_1_symfile___0 (_ bv0 32) ) ) ) (let ( (?B2 ((_ zero_extend 24)  ?B1 ) ) (?B3 ((_ sign_extend 24)  ?B1 ) ) ) (and  (and  (and  (and  (and  (=  (_ bv0 32) (bvand  (bvadd  (_ bv4294967286 32) ?B2 ) (_ bv255 32) ) ) (bvslt  (_ bv57 32) ?B3 ) ) (=  false (bvsle  ?B3 (_ bv47 32) ) ) ) (=  false (=  (_ bv0 32) (bvand  (bvand  ?B2 ?B2 ) (_ bv255 32) ) ) ) ) (bvule  ?B1 (_ bv126 8) ) ) (bvule  (_ bv32 8) ?B1 ) ) ) ) )
(check-sat)
(get-value ( (select v0___symfile____tmp_input___0_1_symfile___0 (_ bv0 32) ) ) )
(exit)
;   OK -- Elapsed: 5.010366e-04
;   Solvable: false

; Query 11 -- Type: InitialValues, Instructions: 13526
(set-option :produce-models true)
(set-logic QF_AUFBV )
(declare-fun v0___symfile____tmp_input___0_1_symfile___0 () (Array (_ BitVec 32) (_ BitVec 8) ) )
(assert (let ( (?B1 (select  v0___symfile____tmp_input___0_1_symfile___0 (_ bv0 32) ) ) ) (let ( (?B2 ((_ zero_extend 24)  ?B1 ) ) (?B3 ((_ sign_extend 24)  ?B1 ) ) ) (let ( (?B4 (bvsle  ?B3 (_ bv47 32) ) ) ) (and  (and  (and  (and  (and  ?B4 (=  false (bvslt  (_ bv57 32) ?B3 ) ) ) (=  false ?B4 ) ) (=  false (=  (_ bv0 32) (bvand  (bvand  ?B2 ?B2 ) (_ bv255 32) ) ) ) ) (bvule  ?B1 (_ bv126 8) ) ) (bvule  (_ bv32 8) ?B1 ) ) ) ) ) )
(check-sat)
(get-value ( (select v0___symfile____tmp_input___0_1_symfile___0 (_ bv0 32) ) ) )
(exit)
;   OK -- Elapsed: 5.218983e-04
;   Solvable: false

; Query 12 -- Type: InitialValues, Instructions: 13668
(set-option :produce-models true)
(set-logic QF_AUFBV )
(declare-fun v0___symfile____tmp_input___0_1_symfile___0 () (Array (_ BitVec 32) (_ BitVec 8) ) )
(assert (let ( (?B1 (select  v0___symfile____tmp_input___0_1_symfile___0 (_ bv0 32) ) ) ) (let ( (?B2 ((_ zero_extend 24)  ?B1 ) ) (?B3 ((_ sign_extend 24)  ?B1 ) ) ) (let ( (?B4 (bvslt  (_ bv57 32) ?B3 ) ) ) false ) ) ) )
(check-sat)
(get-value ( (select v0___symfile____tmp_input___0_1_symfile___0 (_ bv0 32) ) ) )
(exit)
;   OK -- Elapsed: 3.939867e-04
;   Solvable: false

; Query 13 -- Type: InitialValues, Instructions: 20997
(set-option :produce-models true)
(set-logic QF_AUFBV )
(declare-fun v0___symfile____tmp_input___0_1_symfile___0 () (Array (_ BitVec 32) (_ BitVec 8) ) )
(assert (let ( (?B1 (select  v0___symfile____tmp_input___0_1_symfile___0 (_ bv0 32) ) ) ) (let ( (?B2 ((_ zero_extend 24)  ?B1 ) ) ) (and  (and  (and  (and  (=  (_ bv0 32) (bvand  (bvadd  (_ bv4294967253 32) ?B2 ) (_ bv255 32) ) ) (bvsle  ((_ sign_extend 24)  ?B1 ) (_ bv47 32) ) ) (=  false (=  (_ bv0 32) (bvand  (bvand  ?B2 ?B2 ) (_ bv255 32) ) ) ) ) (bvule  ?B1 (_ bv126 8) ) ) (bvule  (_ bv32 8) ?B1 ) ) ) ) )
(check-sat)
(get-value ( (select v0___symfile____tmp_input___0_1_symfile___0 (_ bv0 32) ) ) )
(exit)
;   OK -- Elapsed: 8.510351e-04
;   Solvable: true
;     v0___symfile____tmp_input___0_1_symfile___0 = [43]

; Query 14 -- Type: InitialValues, Instructions: 21135
(set-option :produce-models true)
(set-logic QF_AUFBV )
(declare-fun v0___symfile____tmp_input___0_1_symfile___0 () (Array (_ BitVec 32) (_ BitVec 8) ) )
(assert (let ( (?B1 (select  v0___symfile____tmp_input___0_1_symfile___0 (_ bv0 32) ) ) ) (let ( (?B2 ((_ zero_extend 24)  ?B1 ) ) ) (and  (and  (and  (and  (and  (=  (_ bv0 32) (bvand  (bvadd  (_ bv4294967251 32) ?B2 ) (_ bv255 32) ) ) (=  false (=  (_ bv0 32) (bvand  (bvadd  (_ bv4294967253 32) ?B2 ) (_ bv255 32) ) ) ) ) (bvsle  ((_ sign_extend 24)  ?B1 ) (_ bv47 32) ) ) (=  false (=  (_ bv0 32) (bvand  (bvand  ?B2 ?B2 ) (_ bv255 32) ) ) ) ) (bvule  ?B1 (_ bv126 8) ) ) (bvule  (_ bv32 8) ?B1 ) ) ) ) )
(check-sat)
(get-value ( (select v0___symfile____tmp_input___0_1_symfile___0 (_ bv0 32) ) ) )
(exit)
;   OK -- Elapsed: 7.370710e-04
;   Solvable: true
;     v0___symfile____tmp_input___0_1_symfile___0 = [45]

; Query 15 -- Type: InitialValues, Instructions: 21273
(set-option :produce-models true)
(set-logic QF_AUFBV )
(declare-fun v0___symfile____tmp_input___0_1_symfile___0 () (Array (_ BitVec 32) (_ BitVec 8) ) )
(assert (let ( (?B1 (select  v0___symfile____tmp_input___0_1_symfile___0 (_ bv0 32) ) ) ) (let ( (?B2 ((_ zero_extend 24)  ?B1 ) ) ) (and  (and  (and  (and  (and  (and  (=  (_ bv0 32) (bvand  (bvadd  (_ bv4294967254 32) ?B2 ) (_ bv255 32) ) ) (=  false (=  (_ bv0 32) (bvand  (bvadd  (_ bv4294967251 32) ?B2 ) (_ bv255 32) ) ) ) ) (=  false (=  (_ bv0 32) (bvand  (bvadd  (_ bv4294967253 32) ?B2 ) (_ bv255 32) ) ) ) ) (bvsle  ((_ sign_extend 24)  ?B1 ) (_ bv47 32) ) ) (=  false (=  (_ bv0 32) (bvand  (bvand  ?B2 ?B2 ) (_ bv255 32) ) ) ) ) (bvule  ?B1 (_ bv126 8) ) ) (bvule  (_ bv32 8) ?B1 ) ) ) ) )
(check-sat)
(get-value ( (select v0___symfile____tmp_input___0_1_symfile___0 (_ bv0 32) ) ) )
(exit)
;   OK -- Elapsed: 7.890463e-04
;   Solvable: true
;     v0___symfile____tmp_input___0_1_symfile___0 = [42]

; Query 16 -- Type: InitialValues, Instructions: 21411
(set-option :produce-models true)
(set-logic QF_AUFBV )
(declare-fun v0___symfile____tmp_input___0_1_symfile___0 () (Array (_ BitVec 32) (_ BitVec 8) ) )
(assert (let ( (?B1 (select  v0___symfile____tmp_input___0_1_symfile___0 (_ bv0 32) ) ) ) (let ( (?B2 ((_ zero_extend 24)  ?B1 ) ) ) (and  (and  (and  (and  (and  (and  (and  (=  false (=  (_ bv0 32) (bvand  (bvadd  (_ bv4294967249 32) ?B2 ) (_ bv255 32) ) ) ) (=  false (=  (_ bv0 32) (bvand  (bvadd  (_ bv4294967254 32) ?B2 ) (_ bv255 32) ) ) ) ) (=  false (=  (_ bv0 32) (bvand  (bvadd  (_ bv4294967251 32) ?B2 ) (_ bv255 32) ) ) ) ) (=  false (=  (_ bv0 32) (bvand  (bvadd  (_ bv4294967253 32) ?B2 ) (_ bv255 32) ) ) ) ) (bvsle  ((_ sign_extend 24)  ?B1 ) (_ bv47 32) ) ) (=  false (=  (_ bv0 32) (bvand  (bvand  ?B2 ?B2 ) (_ bv255 32) ) ) ) ) (bvule  ?B1 (_ bv126 8) ) ) (bvule  (_ bv32 8) ?B1 ) ) ) ) )
(check-sat)
(get-value ( (select v0___symfile____tmp_input___0_1_symfile___0 (_ bv0 32) ) ) )
(exit)
;   OK -- Elapsed: 1.101017e-03
;   Solvable: true
;     v0___symfile____tmp_input___0_1_symfile___0 = [32]

; Query 17 -- Type: InitialValues, Instructions: 22731
(set-option :produce-models true)
(set-logic QF_AUFBV )
(declare-fun v0___symfile____tmp_input___0_1_symfile___0 () (Array (_ BitVec 32) (_ BitVec 8) ) )
(assert (let ( (?B1 (select  v0___symfile____tmp_input___0_1_symfile___0 (_ bv0 32) ) ) ) (let ( (?B2 ((_ zero_extend 24)  ?B1 ) ) ) (and  (and  (and  (and  (and  (and  (and  (and  (=  false (=  (_ bv0 32) (bvand  (bvadd  (_ bv4294967264 32) ?B2 ) (_ bv255 32) ) ) ) (=  false (=  (_ bv0 32) (bvand  (bvadd  (_ bv4294967249 32) ?B2 ) (_ bv255 32) ) ) ) ) (=  false (=  (_ bv0 32) (bvand  (bvadd  (_ bv4294967254 32) ?B2 ) (_ bv255 32) ) ) ) ) (=  false (=  (_ bv0 32) (bvand  (bvadd  (_ bv4294967251 32) ?B2 ) (_ bv255 32) ) ) ) ) (=  false (=  (_ bv0 32) (bvand  (bvadd  (_ bv4294967253 32) ?B2 ) (_ bv255 32) ) ) ) ) (bvsle  ((_ sign_extend 24)  ?B1 ) (_ bv47 32) ) ) (=  false (=  (_ bv0 32) (bvand  (bvand  ?B2 ?B2 ) (_ bv255 32) ) ) ) ) (bvule  ?B1 (_ bv126 8) ) ) (bvule  (_ bv32 8) ?B1 ) ) ) ) )
(check-sat)
(get-value ( (select v0___symfile____tmp_input___0_1_symfile___0 (_ bv0 32) ) ) )
(exit)
;   OK -- Elapsed: 1.312017e-03
;   Solvable: true
;     v0___symfile____tmp_input___0_1_symfile___0 = [40]

; Query 18 -- Type: InitialValues, Instructions: 26409
(set-option :produce-models true)
(set-logic QF_AUFBV )
(declare-fun v0___symfile____tmp_input___0_1_symfile___0 () (Array (_ BitVec 32) (_ BitVec 8) ) )
(assert (let ( (?B1 (select  v0___symfile____tmp_input___0_1_symfile___0 (_ bv0 32) ) ) ) (let ( (?B2 ((_ zero_extend 24)  ?B1 ) ) ) (and  (and  (and  (and  (and  (and  (and  (and  (and  (=  (_ bv0 32) (bvand  (bvadd  (_ bv4294967286 32) ?B2 ) (_ bv255 32) ) ) (=  false (=  (_ bv0 32) (bvand  (bvadd  (_ bv4294967264 32) ?B2 ) (_ bv255 32) ) ) ) ) (=  false (=  (_ bv0 32) (bvand  (bvadd  (_ bv4294967249 32) ?B2 ) (_ bv255 32) ) ) ) ) (=  false (=  (_ bv0 32) (bvand  (bvadd  (_ bv4294967254 32) ?B2 ) (_ bv255 32) ) ) ) ) (=  false (=  (_ bv0 32) (bvand  (bvadd  (_ bv4294967251 32) ?B2 ) (_ bv255 32) ) ) ) ) (=  false (=  (_ bv0 32) (bvand  (bvadd  (_ bv4294967253 32) ?B2 ) (_ bv255 32) ) ) ) ) (bvsle  ((_ sign_extend 24)  ?B1 ) (_ bv47 32) ) ) (=  false (=  (_ bv0 32) (bvand  (bvand  ?B2 ?B2 ) (_ bv255 32) ) ) ) ) (bvule  ?B1 (_ bv126 8) ) ) (bvule  (_ bv32 8) ?B1 ) ) ) ) )
(check-sat)
(get-value ( (select v0___symfile____tmp_input___0_1_symfile___0 (_ bv0 32) ) ) )
(exit)
;   OK -- Elapsed: 7.029772e-04
;   Solvable: false

